GeneratedTests/Random_12/Random_12_6.tsp
NAME: Random_12_6
TYPE: TSP
DIMENSION: 12
EDGE_WEIGHT_TYPE: EUC_2D
NODE_COORD_SECTION
1 1.0772288 32.398304
2 25.065704 2.3389356
3 18.086052 11.181318
4 16.383032 4.758438
5 24.64374 29.319563
6 25.622835 18.092607
7 16.677721 5.2848597
8 21.04236 35.614307
9 10.417504 11.69129
10 29.251497 18.769112
11 26.570599 2.3231106
12 19.806791 19.863543
EOF
