GeneratedTests/Random_12/Random_12_6.txt
NAME: Random_12_6
TYPE: TSP
DIMENSION: 12
EDGE_WEIGHT_TYPE: EUC_2D
NODE_COORD_SECTION
1 22.815197 9.754582
2 35.19546 16.08066
3 11.177149 14.072128
4 10.25748 0.12729764
5 16.798994 6.3925066
6 1.4612739 4.3133783
7 19.245073 7.711338
8 11.885836 27.086004
9 13.0301075 15.376834
10 14.84893 30.807089
11 0.8291266 0.75956297
12 22.900694 26.824755
EOF
